NAME: ACTUAL_TOURS/amz0814
TYPE: TOUR
COMMENT: RouteID_57e878c7-ac64-4fc9-954f-1644641f4413
DIMENSION: 162
TOUR_SECTION
110
16
130
154
136
6
91
133
112
92
95
94
86
45
35
121
83
105
29
18
4
71
134
55
153
69
111
72
56
33
146
157
89
116
152
117
149
107
34
53
63
97
142
147
36
47
73
30
43
39
132
101
51
12
124
79
131
85
122
42
32
23
8
5
20
141
150
66
87
139
24
144
59
62
98
13
99
155
44
57
81
37
31
104
118
54
50
68
84
140
119
108
75
143
1
103
161
96
114
156
162
3
49
40
76
115
148
10
64
65
159
70
17
14
60
26
120
129
126
27
74
22
125
67
127
38
58
90
137
2
82
93
52
7
158
80
106
128
78
135
25
160
28
138
11
109
21
41
46
113
123
145
15
151
9
19
61
100
102
48
77
88
-1
EOF
